8 8
1 1 0 1 2 1 2 3
1 1 1 1 2 1 2 3
1 2 2 1 2 1 0 3
1 2 2 1 2 1 2 3
1 2 2 1 2 1 2 3
1 2 3 1 2 1 2 3
1 2 3 1 2 1 2 3
1 2 3 1 2 1 2 3
150 131 0 120 100 95 90 80
101 111 111 120 100 95 90 80
141 151 162 120 100 95 0 80
120 125 125 120 100 95 90 80
120 125 125 120 100 95 90 80
120 125 125 120 100 95 90 80
120 120 120 120 100 95 90 80
120 120 120 120 100 95 90 80
100 0 140 200 400 0 150 200
800 600 800 1000 2000 800 900 1200